Route 1: 0 58 44 65 40 62 2 45 80 0
Route 2: 0 41 11 93 37 78 74 0
Route 3: 0 1 89 76 12 23 8 10 0
Route 4: 0 13 92 30 95 54 33 4 97 42 46 91 60 0
Route 5: 0 69 55 9 85 31 64 0
Route 6: 0 96 21 57 53 3 79 0
Route 7: 0 43 61 66 63 98 24 50 52 18 32 39 49 0
Route 8: 0 15 100 34 68 20 7 56 77 0
Route 9: 0 84 83 36 17 48 6 72 88 27 35 38 99 0
Route 10: 0 14 19 22 29 75 5 16 90 0
Route 11: 0 86 81 82 26 47 51 59 0
Route 12: 0 67 71 25 87 73 28 94 70 0
